u120_01
150 120 49 52
97 0
57 1
81 1
62 2
75 2
81 3
23 0
43 3
50 4
38 4
60 4
58 5
70 5
88 6
36 6
90 7
37 7
45 8
45 8
39 8
44 9
53 9
70 10
24 0
82 11
81 12
47 9
97 13
35 10
65 11
74 14
68 12
49 13
55 14
52 15
94 15
95 16
29 10
99 17
20 3
22 6
25 16
49 17
46 18
98 18
59 19
98 20
60 19
23 16
72 21
33 20
98 22
80 23
95 24
78 25
57 21
67 23
53 24
47 22
53 25
36 26
38 26
92 27
30 19
80 28
32 26
97 29
39 26
80 30
72 31
55 27
41 28
60 30
67 31
53 32
65 32
95 33
20 5
66 34
78 34
98 35
47 29
100 36
85 37
53 33
53 37
67 38
27 28
22 7
61 38
43 35
52 39
76 39
64 40
61 40
29 32
30 36
46 41
79 41
66 42
27 42
79 43
98 44
90 45
22 40
75 46
57 43
67 46
36 42
70 47
99 48
48 44
43 45
45 47
71 49
100 50
88 51
48 48
27 47
39 49